benchmarks_CP/INST_64x64/40/inst64x64_40_63.dzn
S=8;
start=[|
-1,	-1,	-1,	-1,	-1,	6,	-1,	-1,	-1,	23,	-1,	37,	-1,	-1,	29,	-1,	15,	-1,	45,	61,	-1,	-1,	5,	-1,	-1,	-1,	-1,	-1,	49,	9,	14,	-1,	-1,	-1,	-1,	-1,	36,	-1,	44,	-1,	-1,	-1,	53,	-1,	-1,	-1,	12,	-1,	50,	-1,	-1,	39,	4,	-1,	-1,	-1,	-1,	-1,	22,	13,	52,	-1,	-1,	20|
13,	-1,	-1,	-1,	-1,	-1,	45,	10,	7,	-1,	-1,	-1,	-1,	54,	-1,	-1,	4,	29,	47,	56,	-1,	-1,	35,	44,	-1,	60,	-1,	26,	41,	31,	15,	-1,	-1,	-1,	-1,	-1,	46,	-1,	-1,	-1,	-1,	8,	-1,	40,	-1,	-1,	36,	-1,	-1,	-1,	38,	-1,	-1,	-1,	51,	-1,	-1,	-1,	-1,	58,	42,	-1,	-1,	-1|
37,	-1,	58,	-1,	-1,	-1,	16,	-1,	-1,	-1,	-1,	45,	-1,	61,	-1,	-1,	-1,	49,	53,	-1,	-1,	-1,	-1,	17,	51,	-1,	-1,	-1,	62,	-1,	-1,	-1,	-1,	-1,	7,	-1,	-1,	-1,	25,	-1,	64,	-1,	20,	31,	-1,	-1,	15,	-1,	-1,	22,	-1,	21,	-1,	-1,	-1,	-1,	-1,	33,	41,	-1,	43,	-1,	-1,	26|
-1,	-1,	-1,	-1,	22,	42,	-1,	-1,	36,	25,	-1,	-1,	-1,	3,	-1,	-1,	58,	21,	-1,	62,	48,	64,	12,	-1,	56,	-1,	-1,	-1,	4,	43,	-1,	-1,	31,	-1,	-1,	-1,	-1,	-1,	54,	-1,	-1,	-1,	-1,	19,	-1,	45,	38,	-1,	7,	5,	-1,	61,	-1,	-1,	2,	-1,	-1,	-1,	-1,	15,	16,	-1,	-1,	-1|
-1,	-1,	-1,	-1,	-1,	7,	-1,	-1,	52,	-1,	-1,	-1,	-1,	-1,	17,	49,	-1,	-1,	-1,	22,	-1,	43,	-1,	-1,	-1,	11,	3,	6,	-1,	45,	53,	-1,	-1,	38,	8,	34,	62,	-1,	-1,	-1,	56,	-1,	-1,	-1,	-1,	-1,	-1,	-1,	-1,	13,	-1,	-1,	18,	25,	-1,	36,	35,	-1,	4,	29,	37,	-1,	-1,	21|
-1,	31,	-1,	23,	-1,	52,	-1,	-1,	15,	46,	22,	-1,	-1,	18,	-1,	4,	-1,	-1,	-1,	-1,	1,	40,	-1,	-1,	28,	-1,	-1,	39,	-1,	-1,	64,	55,	35,	-1,	-1,	-1,	27,	-1,	11,	-1,	61,	-1,	9,	-1,	-1,	63,	-1,	-1,	-1,	14,	-1,	56,	-1,	44,	43,	16,	49,	-1,	-1,	-1,	-1,	-1,	-1,	-1|
-1,	-1,	-1,	-1,	-1,	-1,	62,	-1,	32,	-1,	-1,	-1,	9,	-1,	-1,	-1,	-1,	-1,	16,	-1,	-1,	-1,	23,	-1,	-1,	34,	38,	-1,	-1,	12,	46,	-1,	61,	-1,	60,	6,	-1,	-1,	15,	-1,	-1,	10,	-1,	14,	-1,	11,	-1,	-1,	-1,	-1,	-1,	-1,	-1,	-1,	-1,	48,	-1,	39,	-1,	-1,	-1,	36,	-1,	-1|
-1,	35,	61,	29,	44,	60,	-1,	55,	-1,	-1,	-1,	-1,	-1,	-1,	62,	42,	-1,	14,	6,	31,	-1,	-1,	-1,	-1,	-1,	-1,	-1,	22,	-1,	-1,	59,	-1,	3,	-1,	-1,	-1,	-1,	10,	-1,	-1,	-1,	48,	-1,	-1,	-1,	-1,	16,	-1,	-1,	-1,	-1,	40,	-1,	-1,	-1,	28,	-1,	-1,	-1,	-1,	38,	-1,	-1,	-1|
-1,	-1,	-1,	-1,	-1,	34,	35,	13,	61,	-1,	7,	-1,	-1,	-1,	-1,	-1,	21,	-1,	-1,	-1,	31,	-1,	-1,	25,	-1,	1,	20,	36,	-1,	39,	45,	28,	-1,	63,	51,	-1,	-1,	43,	-1,	27,	18,	-1,	55,	-1,	-1,	-1,	62,	40,	-1,	-1,	15,	52,	12,	-1,	-1,	-1,	42,	2,	-1,	-1,	-1,	-1,	-1,	-1|
-1,	-1,	-1,	-1,	-1,	-1,	-1,	-1,	-1,	-1,	-1,	32,	-1,	44,	53,	21,	-1,	34,	46,	-1,	13,	56,	-1,	12,	60,	-1,	-1,	-1,	-1,	-1,	-1,	-1,	-1,	-1,	-1,	-1,	-1,	52,	-1,	-1,	15,	-1,	25,	-1,	36,	-1,	-1,	-1,	6,	-1,	-1,	-1,	-1,	-1,	-1,	-1,	-1,	-1,	23,	-1,	-1,	-1,	-1,	-1|
56,	62,	3,	-1,	-1,	41,	-1,	17,	-1,	26,	15,	-1,	-1,	12,	-1,	-1,	-1,	-1,	-1,	-1,	-1,	-1,	-1,	-1,	-1,	-1,	-1,	38,	-1,	-1,	-1,	32,	-1,	14,	-1,	-1,	-1,	18,	-1,	-1,	-1,	-1,	10,	-1,	52,	51,	28,	-1,	-1,	20,	-1,	-1,	-1,	-1,	-1,	31,	-1,	49,	-1,	-1,	-1,	-1,	39,	-1|
25,	-1,	-1,	45,	28,	-1,	-1,	-1,	31,	29,	-1,	63,	-1,	-1,	-1,	23,	-1,	52,	-1,	-1,	26,	61,	-1,	-1,	-1,	-1,	62,	-1,	35,	27,	18,	24,	-1,	13,	-1,	38,	-1,	64,	34,	-1,	-1,	3,	57,	41,	-1,	-1,	-1,	-1,	44,	-1,	-1,	59,	-1,	-1,	4,	-1,	-1,	37,	-1,	46,	20,	32,	-1,	36|
2,	27,	-1,	-1,	-1,	-1,	-1,	52,	-1,	-1,	-1,	39,	-1,	-1,	55,	-1,	-1,	3,	-1,	28,	-1,	-1,	15,	54,	-1,	59,	-1,	-1,	-1,	21,	-1,	-1,	-1,	-1,	42,	53,	-1,	-1,	-1,	26,	-1,	56,	45,	16,	-1,	-1,	-1,	-1,	-1,	-1,	-1,	60,	61,	-1,	-1,	13,	41,	38,	-1,	-1,	-1,	-1,	6,	-1|
26,	-1,	18,	43,	60,	-1,	-1,	-1,	-1,	22,	-1,	-1,	-1,	25,	-1,	28,	-1,	20,	-1,	-1,	41,	-1,	62,	47,	6,	31,	29,	-1,	52,	42,	-1,	30,	-1,	19,	12,	7,	40,	1,	-1,	50,	-1,	-1,	63,	-1,	-1,	34,	11,	14,	-1,	21,	-1,	33,	-1,	-1,	-1,	-1,	9,	24,	15,	-1,	-1,	45,	-1,	-1|
-1,	-1,	55,	32,	-1,	39,	-1,	-1,	30,	3,	-1,	-1,	-1,	35,	8,	-1,	-1,	-1,	36,	42,	6,	-1,	22,	-1,	14,	-1,	44,	-1,	-1,	2,	5,	51,	-1,	56,	-1,	41,	-1,	-1,	20,	21,	-1,	-1,	54,	-1,	12,	-1,	-1,	-1,	-1,	-1,	-1,	37,	-1,	29,	-1,	40,	16,	-1,	-1,	31,	-1,	59,	-1,	-1|
-1,	-1,	-1,	-1,	-1,	-1,	30,	42,	-1,	20,	-1,	-1,	-1,	50,	-1,	57,	16,	39,	-1,	-1,	-1,	-1,	-1,	43,	46,	-1,	-1,	12,	55,	-1,	58,	-1,	44,	-1,	3,	62,	-1,	-1,	-1,	4,	-1,	-1,	8,	-1,	-1,	23,	-1,	29,	2,	26,	-1,	48,	22,	-1,	-1,	-1,	-1,	1,	-1,	-1,	-1,	-1,	-1,	52|
-1,	-1,	-1,	-1,	-1,	-1,	54,	-1,	5,	-1,	-1,	6,	22,	62,	-1,	-1,	-1,	12,	-1,	-1,	-1,	-1,	60,	63,	16,	48,	-1,	41,	-1,	-1,	-1,	31,	47,	33,	55,	-1,	-1,	-1,	-1,	38,	57,	49,	-1,	-1,	34,	-1,	-1,	-1,	-1,	-1,	-1,	-1,	11,	-1,	-1,	-1,	4,	45,	-1,	-1,	15,	-1,	-1,	53|
34,	-1,	-1,	-1,	-1,	31,	-1,	-1,	54,	-1,	10,	-1,	-1,	37,	-1,	27,	-1,	-1,	-1,	-1,	-1,	-1,	-1,	-1,	-1,	-1,	-1,	-1,	-1,	3,	43,	-1,	45,	-1,	-1,	19,	-1,	9,	2,	-1,	-1,	23,	-1,	-1,	-1,	-1,	-1,	-1,	-1,	60,	-1,	-1,	20,	-1,	6,	4,	18,	50,	-1,	17,	-1,	11,	14,	-1|
16,	-1,	-1,	-1,	61,	20,	36,	22,	-1,	47,	-1,	-1,	-1,	-1,	-1,	-1,	53,	-1,	-1,	-1,	-1,	-1,	-1,	6,	32,	-1,	-1,	-1,	2,	-1,	-1,	-1,	-1,	-1,	-1,	25,	-1,	49,	62,	-1,	-1,	19,	14,	-1,	-1,	-1,	-1,	-1,	55,	-1,	-1,	41,	-1,	-1,	-1,	-1,	-1,	51,	-1,	-1,	-1,	-1,	1,	-1|
18,	-1,	-1,	-1,	-1,	8,	-1,	64,	-1,	-1,	-1,	44,	33,	49,	45,	-1,	-1,	31,	-1,	-1,	11,	-1,	52,	-1,	-1,	28,	-1,	-1,	-1,	-1,	-1,	-1,	-1,	-1,	16,	40,	-1,	46,	-1,	1,	-1,	2,	59,	-1,	-1,	48,	-1,	-1,	61,	-1,	-1,	-1,	58,	-1,	-1,	5,	-1,	41,	60,	6,	-1,	-1,	7,	34|
33,	-1,	48,	19,	-1,	-1,	43,	-1,	-1,	-1,	-1,	-1,	23,	-1,	-1,	-1,	-1,	30,	-1,	-1,	49,	-1,	-1,	64,	-1,	29,	-1,	9,	-1,	53,	-1,	17,	59,	3,	-1,	-1,	34,	28,	-1,	42,	60,	24,	-1,	6,	-1,	-1,	-1,	52,	-1,	-1,	-1,	-1,	-1,	27,	39,	-1,	40,	-1,	-1,	8,	21,	-1,	-1,	63|
-1,	-1,	2,	21,	-1,	5,	-1,	53,	39,	8,	-1,	40,	36,	59,	-1,	-1,	7,	-1,	-1,	3,	-1,	-1,	-1,	-1,	54,	-1,	-1,	-1,	27,	-1,	-1,	12,	-1,	-1,	-1,	-1,	-1,	6,	-1,	41,	31,	-1,	43,	-1,	-1,	-1,	-1,	-1,	-1,	-1,	-1,	-1,	62,	18,	48,	23,	-1,	25,	46,	-1,	-1,	-1,	-1,	33|
28,	3,	-1,	27,	25,	-1,	-1,	-1,	20,	-1,	-1,	-1,	-1,	43,	-1,	-1,	56,	54,	35,	-1,	-1,	-1,	-1,	40,	-1,	21,	45,	-1,	-1,	-1,	1,	52,	-1,	-1,	-1,	18,	7,	-1,	61,	-1,	-1,	-1,	47,	-1,	4,	38,	22,	-1,	-1,	59,	-1,	36,	-1,	30,	-1,	-1,	23,	-1,	-1,	12,	29,	10,	-1,	64|
47,	-1,	56,	-1,	7,	30,	60,	44,	-1,	-1,	-1,	-1,	29,	24,	-1,	-1,	62,	-1,	17,	27,	18,	8,	34,	22,	59,	58,	-1,	14,	-1,	-1,	-1,	-1,	32,	-1,	35,	-1,	12,	54,	-1,	23,	-1,	-1,	5,	1,	-1,	-1,	25,	3,	52,	-1,	45,	-1,	-1,	-1,	57,	-1,	-1,	36,	-1,	37,	-1,	28,	-1,	38|
53,	-1,	-1,	7,	4,	-1,	59,	-1,	58,	50,	-1,	18,	11,	38,	-1,	44,	-1,	-1,	25,	63,	-1,	-1,	-1,	13,	-1,	-1,	-1,	-1,	-1,	-1,	49,	1,	-1,	-1,	-1,	39,	-1,	-1,	-1,	-1,	-1,	-1,	28,	-1,	-1,	-1,	8,	-1,	40,	-1,	56,	-1,	48,	-1,	5,	52,	-1,	29,	-1,	60,	-1,	27,	22,	-1|
-1,	-1,	42,	-1,	-1,	45,	52,	-1,	43,	-1,	30,	-1,	7,	13,	4,	-1,	27,	-1,	20,	-1,	53,	-1,	-1,	-1,	17,	15,	25,	61,	56,	-1,	12,	-1,	8,	-1,	28,	-1,	41,	-1,	6,	-1,	-1,	-1,	60,	-1,	-1,	-1,	-1,	23,	-1,	29,	-1,	32,	44,	59,	-1,	-1,	-1,	46,	-1,	-1,	-1,	-1,	-1,	51|
41,	-1,	13,	61,	-1,	-1,	-1,	26,	14,	-1,	46,	49,	17,	-1,	19,	-1,	-1,	23,	-1,	-1,	-1,	51,	-1,	-1,	52,	-1,	-1,	-1,	6,	22,	-1,	-1,	-1,	-1,	62,	54,	-1,	-1,	-1,	-1,	-1,	32,	31,	53,	-1,	-1,	-1,	58,	11,	-1,	30,	27,	-1,	-1,	20,	-1,	64,	-1,	5,	-1,	-1,	-1,	40,	8|
44,	8,	20,	58,	38,	-1,	27,	-1,	34,	-1,	-1,	-1,	56,	-1,	-1,	41,	-1,	-1,	-1,	17,	-1,	54,	45,	-1,	-1,	-1,	-1,	-1,	32,	28,	-1,	-1,	-1,	-1,	46,	-1,	-1,	-1,	-1,	48,	-1,	52,	-1,	-1,	-1,	-1,	-1,	42,	23,	7,	-1,	51,	13,	-1,	-1,	-1,	-1,	15,	6,	-1,	-1,	-1,	-1,	49|
3,	-1,	28,	-1,	12,	47,	-1,	-1,	-1,	-1,	-1,	-1,	-1,	-1,	-1,	54,	60,	-1,	-1,	16,	-1,	2,	-1,	-1,	8,	-1,	58,	53,	59,	-1,	23,	29,	-1,	-1,	-1,	52,	-1,	-1,	13,	-1,	62,	17,	-1,	-1,	44,	18,	-1,	24,	9,	-1,	6,	-1,	57,	14,	-1,	-1,	21,	-1,	37,	38,	35,	-1,	-1,	-1|
49,	-1,	-1,	-1,	32,	-1,	-1,	16,	-1,	-1,	-1,	-1,	-1,	57,	23,	-1,	-1,	47,	28,	26,	-1,	-1,	-1,	29,	45,	-1,	-1,	-1,	64,	-1,	48,	-1,	-1,	36,	4,	50,	-1,	38,	-1,	-1,	14,	-1,	51,	-1,	-1,	-1,	-1,	10,	-1,	55,	-1,	-1,	-1,	46,	-1,	-1,	-1,	-1,	-1,	56,	12,	41,	-1,	-1|
10,	25,	46,	54,	9,	-1,	-1,	5,	-1,	-1,	-1,	16,	-1,	-1,	32,	61,	-1,	-1,	58,	-1,	38,	11,	24,	-1,	-1,	-1,	51,	-1,	-1,	-1,	-1,	-1,	-1,	-1,	-1,	64,	-1,	17,	-1,	-1,	-1,	-1,	-1,	43,	3,	33,	-1,	56,	12,	-1,	-1,	-1,	-1,	-1,	41,	-1,	-1,	23,	-1,	-1,	-1,	-1,	13,	-1|
-1,	18,	-1,	15,	-1,	-1,	-1,	-1,	-1,	-1,	6,	51,	12,	64,	20,	-1,	-1,	9,	33,	-1,	-1,	-1,	-1,	-1,	-1,	14,	27,	-1,	-1,	-1,	-1,	-1,	-1,	-1,	-1,	-1,	45,	-1,	32,	-1,	-1,	35,	-1,	-1,	-1,	26,	-1,	57,	16,	63,	25,	8,	24,	-1,	-1,	1,	-1,	34,	-1,	-1,	54,	-1,	3,	-1|
62,	-1,	-1,	20,	58,	35,	-1,	-1,	45,	27,	39,	-1,	-1,	-1,	-1,	-1,	-1,	-1,	42,	37,	-1,	-1,	-1,	-1,	-1,	38,	-1,	-1,	-1,	46,	60,	-1,	7,	-1,	-1,	44,	-1,	-1,	4,	-1,	-1,	14,	32,	-1,	26,	-1,	-1,	-1,	-1,	-1,	5,	-1,	-1,	-1,	13,	-1,	-1,	-1,	-1,	-1,	-1,	22,	-1,	28|
55,	-1,	41,	4,	29,	-1,	18,	54,	-1,	-1,	57,	-1,	15,	-1,	24,	-1,	13,	-1,	-1,	-1,	-1,	-1,	-1,	27,	30,	26,	-1,	23,	12,	64,	19,	47,	-1,	34,	14,	-1,	8,	-1,	28,	-1,	-1,	16,	-1,	10,	48,	39,	3,	-1,	25,	2,	-1,	-1,	-1,	-1,	-1,	7,	-1,	35,	-1,	-1,	-1,	-1,	-1,	-1|
-1,	-1,	-1,	5,	52,	-1,	-1,	6,	-1,	-1,	43,	36,	-1,	41,	31,	-1,	9,	26,	54,	58,	-1,	-1,	4,	-1,	2,	-1,	63,	-1,	51,	-1,	-1,	13,	-1,	32,	-1,	-1,	55,	-1,	-1,	-1,	11,	-1,	-1,	-1,	57,	30,	-1,	-1,	-1,	-1,	46,	20,	47,	-1,	-1,	-1,	39,	27,	34,	21,	-1,	64,	62,	40|
-1,	40,	17,	-1,	21,	-1,	14,	7,	-1,	-1,	18,	-1,	46,	-1,	-1,	-1,	32,	11,	39,	-1,	-1,	-1,	-1,	36,	-1,	-1,	48,	-1,	-1,	-1,	35,	6,	-1,	61,	49,	26,	-1,	-1,	-1,	-1,	-1,	-1,	-1,	33,	56,	-1,	-1,	-1,	-1,	-1,	-1,	-1,	29,	-1,	-1,	-1,	-1,	52,	-1,	-1,	-1,	-1,	20,	-1|
-1,	-1,	60,	-1,	-1,	-1,	-1,	-1,	49,	-1,	32,	59,	-1,	-1,	-1,	-1,	-1,	2,	-1,	-1,	-1,	10,	6,	41,	50,	-1,	-1,	-1,	40,	34,	-1,	-1,	-1,	-1,	17,	-1,	52,	33,	64,	-1,	-1,	-1,	-1,	-1,	-1,	12,	-1,	37,	43,	-1,	-1,	-1,	15,	-1,	-1,	-1,	-1,	-1,	-1,	-1,	3,	-1,	-1,	57|
-1,	-1,	45,	-1,	2,	-1,	-1,	-1,	-1,	-1,	-1,	-1,	52,	-1,	47,	-1,	-1,	-1,	-1,	-1,	-1,	-1,	-1,	-1,	-1,	-1,	37,	-1,	-1,	-1,	-1,	22,	-1,	-1,	-1,	-1,	57,	-1,	-1,	29,	38,	-1,	-1,	-1,	46,	9,	27,	-1,	-1,	-1,	28,	-1,	-1,	-1,	16,	-1,	14,	-1,	50,	54,	41,	-1,	-1,	-1|
-1,	57,	-1,	28,	48,	-1,	26,	-1,	11,	-1,	50,	56,	16,	-1,	-1,	62,	-1,	46,	21,	35,	14,	-1,	-1,	5,	31,	33,	24,	-1,	29,	-1,	-1,	-1,	-1,	-1,	47,	-1,	-1,	51,	9,	-1,	20,	54,	64,	-1,	-1,	52,	63,	2,	-1,	53,	-1,	34,	45,	17,	-1,	-1,	-1,	18,	-1,	19,	13,	-1,	-1,	-1|
-1,	-1,	-1,	-1,	-1,	46,	-1,	25,	2,	48,	-1,	-1,	26,	-1,	-1,	38,	52,	-1,	-1,	55,	63,	-1,	1,	16,	39,	-1,	-1,	-1,	-1,	54,	-1,	-1,	20,	-1,	-1,	-1,	-1,	-1,	-1,	-1,	59,	-1,	34,	-1,	-1,	50,	4,	-1,	-1,	-1,	42,	-1,	-1,	56,	19,	-1,	7,	-1,	-1,	51,	-1,	-1,	-1,	-1|
21,	29,	-1,	52,	13,	-1,	5,	48,	-1,	-1,	-1,	-1,	-1,	-1,	49,	-1,	44,	-1,	-1,	-1,	12,	7,	-1,	-1,	-1,	46,	-1,	32,	31,	26,	-1,	-1,	-1,	-1,	43,	-1,	47,	-1,	-1,	36,	-1,	-1,	-1,	60,	-1,	14,	-1,	-1,	-1,	-1,	-1,	-1,	34,	-1,	8,	-1,	-1,	6,	-1,	-1,	-1,	17,	24,	23|
58,	-1,	-1,	34,	-1,	32,	-1,	-1,	-1,	62,	27,	-1,	44,	-1,	36,	-1,	-1,	45,	-1,	38,	-1,	-1,	8,	35,	25,	18,	-1,	-1,	-1,	-1,	22,	21,	-1,	-1,	29,	-1,	42,	7,	53,	61,	-1,	39,	13,	17,	-1,	1,	-1,	-1,	-1,	-1,	-1,	5,	-1,	-1,	52,	-1,	-1,	28,	-1,	-1,	-1,	-1,	-1,	43|
36,	-1,	25,	-1,	-1,	37,	64,	-1,	50,	-1,	-1,	-1,	-1,	-1,	14,	-1,	54,	-1,	52,	39,	33,	-1,	-1,	20,	38,	-1,	-1,	-1,	-1,	60,	-1,	-1,	10,	49,	11,	32,	23,	-1,	-1,	46,	-1,	-1,	2,	61,	29,	-1,	-1,	45,	-1,	-1,	-1,	44,	-1,	57,	12,	-1,	-1,	-1,	40,	59,	34,	42,	-1,	-1|
-1,	-1,	-1,	18,	-1,	-1,	-1,	-1,	-1,	54,	-1,	8,	-1,	-1,	-1,	47,	-1,	63,	-1,	-1,	-1,	26,	56,	11,	-1,	44,	12,	-1,	43,	-1,	-1,	4,	-1,	37,	38,	-1,	-1,	62,	1,	-1,	3,	-1,	23,	-1,	-1,	22,	-1,	-1,	41,	-1,	27,	2,	7,	-1,	46,	-1,	-1,	-1,	-1,	-1,	-1,	-1,	-1,	58|
42,	-1,	38,	6,	-1,	2,	-1,	14,	-1,	-1,	-1,	-1,	-1,	-1,	-1,	-1,	-1,	19,	-1,	-1,	9,	-1,	-1,	34,	36,	-1,	-1,	-1,	-1,	20,	-1,	-1,	26,	-1,	-1,	33,	13,	59,	35,	22,	-1,	-1,	-1,	-1,	-1,	-1,	-1,	-1,	-1,	-1,	48,	-1,	28,	60,	-1,	-1,	-1,	61,	-1,	49,	-1,	-1,	-1,	-1|
-1,	54,	43,	-1,	8,	16,	20,	3,	-1,	-1,	-1,	-1,	-1,	-1,	-1,	31,	-1,	17,	-1,	-1,	36,	-1,	-1,	-1,	-1,	-1,	-1,	-1,	-1,	-1,	-1,	-1,	4,	-1,	-1,	-1,	21,	60,	-1,	34,	63,	-1,	40,	-1,	15,	6,	26,	41,	-1,	-1,	-1,	-1,	-1,	39,	-1,	-1,	38,	-1,	-1,	30,	-1,	1,	57,	50|
57,	-1,	10,	44,	-1,	4,	61,	27,	-1,	-1,	21,	-1,	-1,	60,	-1,	59,	-1,	43,	30,	32,	-1,	49,	-1,	58,	-1,	-1,	-1,	47,	15,	-1,	52,	-1,	64,	-1,	54,	-1,	-1,	25,	3,	-1,	-1,	-1,	16,	8,	9,	-1,	-1,	-1,	-1,	-1,	33,	31,	-1,	40,	-1,	26,	-1,	56,	-1,	-1,	48,	-1,	53,	-1|
-1,	-1,	22,	-1,	-1,	11,	7,	15,	-1,	-1,	61,	-1,	-1,	-1,	25,	-1,	2,	62,	-1,	-1,	-1,	-1,	-1,	-1,	40,	64,	-1,	-1,	-1,	-1,	-1,	-1,	-1,	44,	5,	-1,	50,	14,	8,	-1,	-1,	20,	-1,	-1,	-1,	-1,	52,	-1,	-1,	1,	47,	24,	21,	-1,	30,	-1,	-1,	-1,	35,	-1,	19,	-1,	54,	-1|
-1,	-1,	-1,	-1,	43,	-1,	23,	-1,	24,	38,	19,	-1,	8,	-1,	5,	30,	-1,	-1,	7,	50,	-1,	-1,	-1,	1,	-1,	-1,	-1,	-1,	9,	14,	-1,	45,	-1,	64,	44,	-1,	54,	-1,	-1,	32,	22,	-1,	58,	-1,	-1,	10,	-1,	-1,	-1,	18,	-1,	28,	46,	36,	29,	37,	60,	12,	25,	26,	11,	-1,	33,	-1|
-1,	-1,	-1,	-1,	46,	27,	2,	-1,	-1,	-1,	-1,	41,	-1,	34,	57,	39,	-1,	40,	10,	-1,	-1,	-1,	59,	32,	12,	54,	26,	64,	5,	-1,	-1,	-1,	-1,	-1,	-1,	-1,	-1,	-1,	-1,	-1,	-1,	-1,	44,	-1,	-1,	-1,	-1,	-1,	42,	52,	20,	-1,	-1,	-1,	49,	-1,	-1,	-1,	-1,	-1,	28,	-1,	63,	45|
20,	-1,	-1,	-1,	-1,	-1,	-1,	36,	47,	-1,	-1,	46,	-1,	-1,	-1,	-1,	26,	-1,	61,	-1,	19,	-1,	-1,	53,	44,	-1,	-1,	-1,	-1,	18,	-1,	38,	28,	-1,	-1,	-1,	58,	-1,	-1,	5,	17,	-1,	-1,	-1,	-1,	7,	-1,	-1,	22,	34,	-1,	-1,	-1,	-1,	55,	-1,	30,	40,	-1,	35,	-1,	-1,	41,	37|
-1,	-1,	24,	-1,	-1,	-1,	28,	41,	10,	60,	48,	54,	-1,	36,	-1,	-1,	-1,	-1,	62,	-1,	5,	-1,	-1,	-1,	-1,	47,	53,	31,	-1,	-1,	-1,	7,	25,	-1,	-1,	12,	-1,	3,	-1,	-1,	35,	42,	-1,	13,	14,	-1,	-1,	-1,	30,	-1,	-1,	-1,	-1,	32,	-1,	-1,	-1,	-1,	1,	-1,	51,	-1,	61,	9|
-1,	-1,	37,	25,	-1,	-1,	57,	59,	13,	-1,	42,	-1,	50,	-1,	44,	22,	12,	-1,	23,	-1,	46,	30,	-1,	-1,	20,	-1,	-1,	-1,	-1,	17,	51,	-1,	52,	1,	33,	-1,	-1,	-1,	-1,	-1,	28,	-1,	-1,	-1,	-1,	4,	-1,	-1,	5,	-1,	2,	47,	14,	35,	40,	-1,	-1,	-1,	38,	-1,	62,	-1,	-1,	-1|
-1,	5,	-1,	-1,	-1,	44,	58,	38,	51,	-1,	-1,	64,	-1,	-1,	-1,	18,	63,	-1,	49,	-1,	-1,	-1,	-1,	-1,	-1,	-1,	-1,	-1,	-1,	-1,	-1,	60,	-1,	-1,	-1,	9,	56,	34,	46,	35,	6,	55,	-1,	57,	16,	54,	24,	-1,	15,	41,	-1,	-1,	-1,	-1,	-1,	-1,	-1,	-1,	7,	-1,	-1,	-1,	43,	-1|
-1,	-1,	-1,	-1,	17,	-1,	-1,	-1,	-1,	-1,	-1,	62,	-1,	45,	6,	25,	35,	-1,	-1,	-1,	-1,	-1,	37,	-1,	-1,	19,	46,	-1,	23,	57,	-1,	-1,	18,	-1,	-1,	-1,	22,	40,	-1,	-1,	2,	1,	36,	27,	63,	-1,	-1,	12,	-1,	48,	-1,	-1,	33,	-1,	56,	61,	20,	-1,	-1,	64,	50,	-1,	47,	-1|
-1,	-1,	-1,	-1,	-1,	-1,	8,	29,	28,	-1,	33,	-1,	-1,	-1,	-1,	-1,	-1,	-1,	18,	-1,	52,	58,	-1,	-1,	1,	-1,	-1,	-1,	-1,	63,	32,	-1,	62,	48,	53,	-1,	51,	57,	-1,	-1,	-1,	30,	-1,	-1,	-1,	-1,	40,	-1,	-1,	54,	-1,	38,	59,	-1,	-1,	-1,	6,	22,	2,	24,	-1,	46,	36,	-1|
9,	-1,	-1,	50,	-1,	33,	51,	-1,	-1,	-1,	56,	20,	-1,	-1,	-1,	3,	-1,	-1,	-1,	-1,	10,	-1,	-1,	8,	-1,	-1,	5,	-1,	-1,	25,	42,	39,	-1,	16,	-1,	-1,	-1,	61,	-1,	62,	45,	-1,	27,	-1,	-1,	35,	-1,	43,	-1,	-1,	-1,	-1,	-1,	2,	-1,	29,	63,	-1,	19,	-1,	-1,	7,	44,	-1|
-1,	11,	-1,	-1,	-1,	-1,	21,	-1,	35,	64,	-1,	-1,	-1,	-1,	-1,	-1,	-1,	60,	55,	-1,	-1,	-1,	-1,	-1,	-1,	-1,	36,	-1,	-1,	-1,	7,	-1,	12,	-1,	-1,	-1,	-1,	-1,	-1,	19,	-1,	6,	-1,	47,	-1,	-1,	14,	8,	-1,	38,	-1,	-1,	-1,	-1,	-1,	10,	59,	62,	-1,	32,	56,	-1,	37,	3|
-1,	-1,	8,	-1,	-1,	-1,	47,	18,	-1,	-1,	-1,	-1,	38,	-1,	-1,	-1,	17,	1,	14,	-1,	23,	45,	-1,	21,	-1,	-1,	-1,	-1,	-1,	-1,	62,	46,	34,	-1,	-1,	-1,	-1,	-1,	59,	24,	9,	-1,	-1,	-1,	-1,	-1,	-1,	-1,	-1,	-1,	-1,	30,	26,	-1,	-1,	-1,	-1,	-1,	-1,	-1,	-1,	6,	50,	-1|
-1,	-1,	-1,	-1,	-1,	-1,	25,	43,	-1,	44,	-1,	21,	-1,	-1,	50,	32,	-1,	-1,	11,	4,	-1,	16,	-1,	-1,	-1,	27,	56,	-1,	10,	61,	-1,	-1,	38,	20,	-1,	51,	-1,	35,	-1,	-1,	1,	57,	-1,	-1,	55,	36,	-1,	-1,	-1,	-1,	-1,	-1,	-1,	6,	47,	15,	28,	54,	17,	-1,	14,	24,	-1,	41|
-1,	-1,	26,	-1,	-1,	-1,	4,	19,	18,	-1,	-1,	-1,	1,	-1,	-1,	-1,	29,	-1,	-1,	-1,	-1,	-1,	9,	-1,	37,	6,	-1,	-1,	3,	-1,	-1,	-1,	-1,	45,	-1,	-1,	43,	-1,	-1,	64,	32,	7,	-1,	62,	28,	53,	41,	-1,	-1,	-1,	57,	-1,	-1,	-1,	-1,	-1,	61,	-1,	-1,	-1,	-1,	-1,	-1,	-1|
-1,	-1,	-1,	-1,	36,	-1,	-1,	45,	55,	53,	29,	-1,	24,	-1,	16,	-1,	-1,	51,	-1,	-1,	40,	3,	-1,	-1,	-1,	-1,	-1,	63,	-1,	-1,	-1,	2,	-1,	41,	-1,	37,	25,	-1,	49,	10,	44,	46,	-1,	-1,	54,	20,	-1,	31,	27,	64,	-1,	4,	-1,	50,	18,	-1,	-1,	21,	-1,	39,	-1,	-1,	-1,	1|
-1,	-1,	1,	64,	-1,	61,	6,	56,	57,	-1,	-1,	-1,	37,	22,	46,	-1,	-1,	28,	-1,	-1,	-1,	63,	-1,	-1,	19,	20,	40,	-1,	-1,	-1,	34,	-1,	21,	-1,	-1,	42,	-1,	-1,	14,	-1,	10,	-1,	12,	26,	-1,	-1,	2,	-1,	-1,	45,	41,	43,	-1,	58,	62,	44,	-1,	13,	30,	23,	-1,	-1,	-1,	35|
-1,	-1,	-1,	3,	-1,	48,	-1,	-1,	9,	-1,	8,	25,	-1,	-1,	39,	-1,	-1,	-1,	41,	-1,	64,	22,	-1,	31,	55,	-1,	-1,	-1,	-1,	38,	-1,	59,	-1,	17,	32,	-1,	11,	-1,	5,	6,	-1,	40,	-1,	-1,	33,	-1,	23,	-1,	-1,	42,	-1,	-1,	36,	1,	-1,	-1,	34,	-1,	18,	-1,	-1,	-1,	45,	-1|];
