sudoku-ls/benchmarks_LEQ/INST_64x64/40/inst64x64_40_63.txt
8
1
-1	26	-1	38	64	-1	1	-1	-1	-1	40	-1	-1	-1	-1	-1	-1	32	-1	61	24	60	5	28	18	-1	16	-1	49	-1	-1	-1	-1	-1	-1	-1	36	42	44	47	46	51	53	-1	58	-1	-1	-1	-1	-1	-1	-1	4	10	-1	35	17	7	-1	-1	52	31	2	20
-1	-1	-1	-1	-1	-1	-1	10	7	-1	64	-1	-1	-1	-1	-1	-1	-1	-1	-1	-1	-1	-1	-1	-1	-1	-1	-1	41	31	-1	-1	33	9	-1	-1	-1	-1	-1	-1	34	-1	-1	-1	1	28	-1	-1	-1	-1	-1	49	-1	-1	-1	62	-1	-1	-1	-1	-1	-1	-1	6
37	-1	58	-1	14	-1	16	39	-1	2	-1	-1	48	-1	-1	12	-1	49	-1	11	-1	46	55	-1	-1	-1	-1	-1	62	-1	-1	-1	23	5	7	57	4	-1	-1	30	64	-1	-1	31	60	-1	15	44	-1	-1	-1	-1	-1	-1	-1	-1	3	-1	-1	-1	-1	-1	27	-1
-1	17	27	-1	-1	-1	-1	-1	36	-1	-1	11	-1	-1	-1	-1	-1	21	63	62	48	-1	-1	33	-1	-1	-1	-1	-1	43	-1	-1	-1	28	13	-1	-1	32	-1	-1	-1	37	-1	-1	-1	-1	38	26	-1	-1	-1	61	-1	34	-1	-1	-1	-1	-1	15	-1	-1	-1	-1
48	28	-1	-1	-1	-1	-1	-1	-1	-1	-1	-1	60	-1	-1	-1	-1	42	-1	-1	20	-1	-1	-1	-1	-1	3	-1	-1	45	-1	-1	-1	38	8	34	-1	-1	24	-1	-1	-1	-1	-1	-1	-1	55	50	-1	-1	58	-1	-1	-1	64	-1	-1	-1	-1	-1	-1	40	10	21
-1	-1	-1	23	20	-1	50	12	15	-1	-1	-1	-1	18	41	-1	-1	57	-1	8	1	-1	26	10	-1	-1	30	39	-1	-1	-1	-1	-1	21	59	17	-1	58	-1	45	-1	-1	-1	42	2	-1	-1	-1	-1	-1	3	56	-1	44	43	-1	49	-1	-1	-1	-1	-1	-1	-1
-1	-1	49	47	-1	-1	62	30	32	58	63	-1	-1	-1	28	19	41	25	16	7	3	13	23	-1	21	34	-1	2	-1	12	-1	-1	-1	29	-1	6	-1	-1	15	-1	-1	10	18	-1	-1	11	-1	-1	45	-1	-1	-1	27	-1	-1	-1	-1	-1	-1	-1	-1	-1	-1	5
-1	35	61	-1	-1	60	19	55	-1	21	24	-1	-1	-1	-1	-1	51	-1	6	-1	-1	-1	-1	2	7	13	-1	22	-1	1	-1	25	3	-1	-1	-1	49	-1	-1	-1	43	-1	-1	4	-1	-1	-1	27	33	15	-1	-1	-1	-1	-1	-1	-1	57	45	-1	38	9	-1	-1
-1	-1	-1	-1	-1	34	-1	13	-1	11	7	-1	-1	-1	-1	-1	-1	-1	-1	30	31	-1	-1	-1	-1	-1	-1	-1	-1	-1	-1	-1	-1	63	51	59	60	43	47	-1	18	-1	55	-1	19	32	62	-1	56	46	-1	52	-1	41	23	-1	-1	2	-1	-1	-1	-1	-1	14
1	-1	59	-1	-1	64	29	-1	-1	41	37	32	18	-1	-1	21	-1	-1	46	19	-1	-1	14	-1	-1	61	43	40	-1	-1	-1	49	-1	35	22	8	5	52	-1	58	-1	-1	-1	-1	36	31	-1	30	-1	9	-1	-1	-1	-1	7	-1	-1	10	23	-1	33	54	28	-1
-1	62	-1	-1	-1	-1	46	-1	-1	26	-1	-1	5	12	-1	9	45	24	-1	29	58	35	63	23	4	37	-1	38	11	-1	-1	32	-1	-1	-1	2	30	18	48	-1	27	53	10	22	-1	-1	-1	-1	-1	20	-1	42	-1	-1	25	-1	-1	-1	21	-1	-1	-1	39	-1
-1	-1	-1	-1	-1	12	-1	40	31	29	2	63	-1	-1	-1	-1	-1	-1	-1	1	26	-1	-1	-1	53	22	-1	15	35	-1	-1	-1	-1	-1	6	-1	-1	-1	34	-1	7	-1	57	-1	21	60	50	-1	-1	19	-1	-1	39	-1	-1	30	-1	37	-1	-1	-1	32	-1	-1
-1	-1	-1	-1	-1	-1	31	-1	-1	-1	36	39	-1	46	-1	-1	-1	3	9	28	17	-1	-1	-1	-1	-1	-1	25	34	21	-1	-1	29	10	42	53	32	24	-1	26	-1	-1	-1	-1	20	-1	-1	-1	-1	-1	18	-1	61	-1	1	13	-1	-1	-1	40	-1	12	6	-1
-1	-1	-1	-1	60	38	-1	23	64	22	-1	-1	59	-1	48	-1	-1	20	-1	51	41	32	-1	-1	-1	-1	-1	-1	-1	-1	-1	30	-1	19	-1	7	-1	-1	-1	-1	-1	-1	-1	39	-1	-1	-1	-1	36	-1	53	-1	-1	-1	-1	-1	-1	24	15	5	-1	-1	-1	27
63	-1	-1	32	-1	39	-1	61	-1	3	52	-1	34	35	-1	-1	57	18	-1	42	-1	-1	-1	7	-1	-1	44	-1	-1	2	-1	-1	-1	-1	-1	41	-1	-1	-1	21	-1	38	-1	-1	12	-1	-1	48	-1	-1	-1	37	-1	-1	27	40	16	53	-1	31	-1	-1	-1	60
7	-1	-1	-1	6	53	30	-1	-1	20	-1	47	-1	-1	-1	-1	16	-1	60	64	27	37	40	-1	-1	-1	-1	12	55	33	-1	-1	-1	54	3	-1	-1	45	31	4	5	-1	-1	9	24	23	17	-1	-1	-1	-1	48	-1	-1	-1	32	-1	-1	61	34	-1	-1	18	52
51	10	-1	-1	35	-1	-1	-1	-1	28	25	6	-1	-1	58	46	24	12	1	-1	-1	-1	-1	-1	-1	-1	-1	41	7	-1	-1	-1	-1	-1	-1	-1	-1	44	52	-1	57	-1	37	30	-1	-1	-1	17	32	-1	13	26	11	-1	-1	-1	-1	45	-1	-1	-1	2	-1	-1
34	-1	-1	42	59	-1	41	-1	54	-1	-1	-1	61	-1	52	27	38	-1	15	-1	44	-1	-1	-1	-1	30	8	-1	-1	-1	-1	40	45	22	-1	19	-1	9	-1	51	16	23	-1	-1	53	-1	-1	-1	29	-1	-1	-1	20	-1	-1	4	-1	50	-1	-1	-1	-1	14	47
16	52	29	40	-1	-1	36	-1	-1	-1	34	-1	-1	-1	30	-1	-1	-1	-1	9	45	-1	-1	-1	32	10	4	-1	2	-1	-1	11	-1	-1	-1	25	-1	-1	-1	-1	21	-1	-1	12	-1	8	-1	-1	-1	-1	-1	-1	-1	-1	-1	24	27	51	-1	-1	5	-1	-1	-1
18	-1	62	-1	-1	-1	-1	-1	-1	-1	-1	-1	-1	-1	45	-1	10	-1	-1	43	-1	-1	-1	4	22	28	-1	-1	-1	51	-1	23	-1	-1	-1	40	14	-1	-1	-1	29	-1	-1	-1	-1	-1	32	20	-1	-1	21	-1	-1	-1	-1	-1	19	41	-1	-1	-1	30	7	-1
33	-1	-1	19	-1	-1	-1	58	-1	18	41	-1	-1	-1	-1	50	47	30	-1	20	-1	-1	-1	64	57	-1	-1	9	-1	-1	44	-1	59	-1	-1	11	-1	28	-1	-1	-1	24	-1	-1	-1	-1	-1	52	10	-1	-1	-1	37	27	-1	22	40	31	-1	8	-1	-1	-1	63
-1	-1	-1	-1	11	-1	-1	-1	39	-1	17	40	-1	-1	-1	1	-1	-1	29	3	-1	19	16	-1	54	49	-1	42	-1	-1	38	-1	60	-1	10	-1	-1	6	56	41	-1	45	-1	-1	-1	-1	-1	-1	14	47	34	35	-1	18	-1	23	22	25	46	61	-1	52	-1	-1
28	-1	-1	-1	-1	49	-1	-1	20	32	-1	-1	-1	-1	2	-1	-1	54	35	13	51	-1	41	-1	-1	-1	45	-1	60	-1	-1	-1	-1	-1	-1	-1	-1	-1	-1	-1	-1	62	-1	-1	4	38	22	11	-1	59	-1	36	9	-1	-1	46	-1	-1	-1	12	29	10	55	64
-1	-1	56	46	-1	-1	-1	44	-1	-1	-1	-1	-1	24	11	-1	-1	61	17	-1	-1	-1	-1	-1	-1	58	-1	-1	63	-1	20	-1	32	-1	-1	-1	-1	54	-1	-1	26	-1	-1	1	-1	-1	-1	3	-1	-1	45	-1	-1	43	57	53	-1	-1	49	-1	-1	28	42	-1
53	-1	-1	7	4	24	59	-1	-1	50	-1	-1	11	-1	-1	-1	-1	10	-1	63	-1	62	21	13	-1	-1	42	54	-1	-1	-1	-1	-1	-1	34	-1	35	-1	-1	-1	-1	-1	28	-1	-1	-1	8	-1	-1	-1	-1	19	48	61	5	52	-1	-1	-1	60	-1	-1	-1	-1
-1	-1	-1	35	50	45	-1	-1	43	-1	-1	55	-1	-1	4	-1	-1	-1	-1	-1	53	-1	-1	18	17	-1	25	-1	-1	-1	12	3	-1	-1	-1	47	41	21	-1	9	-1	22	-1	-1	-1	-1	-1	23	-1	-1	-1	-1	-1	59	10	38	33	46	-1	57	26	-1	-1	51
-1	-1	-1	-1	56	-1	34	26	14	9	-1	49	17	-1	19	-1	-1	23	37	48	-1	-1	39	15	52	-1	-1	18	-1	-1	24	-1	16	-1	-1	-1	-1	-1	-1	44	-1	-1	-1	53	-1	-1	45	-1	-1	4	-1	-1	-1	28	-1	-1	-1	63	-1	-1	-1	-1	40	-1
44	-1	-1	58	-1	-1	27	-1	-1	-1	-1	22	56	-1	63	41	-1	36	-1	17	-1	-1	-1	-1	-1	57	-1	30	-1	-1	9	16	-1	-1	-1	-1	37	5	29	48	40	52	39	-1	59	-1	61	-1	-1	7	43	-1	13	-1	-1	2	11	-1	-1	18	-1	-1	-1	49
-1	-1	28	48	-1	47	55	51	-1	15	5	-1	-1	-1	-1	-1	-1	41	-1	-1	-1	-1	-1	49	-1	4	-1	53	-1	19	-1	-1	22	-1	-1	-1	33	-1	13	-1	62	17	-1	64	-1	18	-1	-1	9	36	-1	-1	57	14	-1	50	21	-1	-1	38	-1	43	-1	61
49	-1	11	-1	32	-1	-1	-1	-1	-1	62	-1	-1	-1	23	8	22	-1	-1	-1	-1	-1	3	-1	45	-1	-1	-1	-1	40	-1	-1	-1	-1	4	50	61	38	-1	-1	14	5	51	-1	-1	19	21	10	-1	55	31	-1	42	-1	60	33	-1	-1	59	-1	12	-1	17	-1
10	-1	46	-1	-1	-1	-1	-1	-1	-1	-1	-1	-1	-1	-1	61	-1	-1	-1	-1	-1	-1	24	-1	63	-1	-1	-1	-1	55	37	-1	57	-1	19	-1	26	17	40	-1	50	27	1	-1	-1	-1	-1	56	-1	-1	-1	62	35	-1	-1	18	47	23	-1	52	-1	-1	13	-1
-1	18	-1	-1	23	-1	17	37	-1	-1	6	-1	-1	64	-1	-1	46	-1	33	-1	-1	-1	-1	-1	47	-1	27	-1	38	62	39	5	49	-1	-1	60	45	-1	-1	-1	4	35	11	-1	-1	26	-1	57	16	-1	-1	8	-1	-1	22	-1	2	-1	-1	-1	-1	58	3	-1
62	-1	-1	-1	58	-1	3	8	45	27	-1	-1	-1	53	-1	33	34	56	-1	-1	-1	-1	-1	57	-1	-1	-1	52	-1	46	60	-1	-1	40	50	-1	-1	16	-1	-1	-1	14	-1	24	26	-1	-1	55	51	-1	-1	-1	-1	23	-1	-1	-1	30	-1	-1	6	22	-1	-1
-1	56	-1	-1	-1	-1	-1	-1	17	-1	-1	-1	-1	-1	24	37	13	33	43	-1	-1	-1	-1	27	-1	26	21	-1	-1	-1	-1	-1	53	-1	-1	-1	8	-1	28	11	-1	16	-1	-1	-1	39	3	-1	-1	-1	-1	-1	50	-1	-1	-1	-1	-1	31	-1	61	-1	-1	-1
23	49	-1	-1	-1	50	-1	-1	44	-1	43	36	-1	-1	31	14	9	26	54	-1	-1	29	-1	60	2	-1	-1	59	51	7	-1	13	-1	-1	-1	-1	-1	56	-1	-1	11	-1	35	18	57	-1	-1	-1	-1	37	-1	-1	47	22	-1	8	-1	27	-1	21	24	-1	-1	-1
59	40	-1	-1	21	-1	-1	-1	-1	-1	18	-1	-1	-1	-1	-1	-1	-1	39	-1	22	-1	-1	-1	-1	16	-1	-1	57	15	-1	-1	37	61	-1	-1	-1	-1	30	-1	-1	-1	42	-1	56	-1	47	1	-1	27	60	-1	-1	-1	-1	58	5	52	-1	-1	10	-1	-1	-1
-1	61	60	-1	-1	-1	38	-1	-1	-1	32	-1	-1	51	-1	5	28	-1	-1	-1	-1	-1	-1	-1	-1	55	-1	-1	-1	-1	-1	-1	-1	-1	-1	35	-1	33	-1	54	-1	36	-1	-1	-1	12	31	-1	43	24	63	-1	-1	-1	-1	39	56	26	8	53	-1	-1	16	57
-1	1	-1	24	-1	-1	33	-1	6	-1	-1	12	52	-1	-1	20	-1	-1	51	23	-1	-1	-1	3	42	5	-1	-1	-1	-1	-1	22	-1	-1	-1	-1	-1	-1	-1	-1	-1	21	-1	25	46	-1	-1	61	-1	35	-1	-1	30	48	-1	-1	-1	-1	50	54	41	-1	11	-1
-1	57	-1	-1	-1	-1	-1	-1	-1	55	-1	56	16	-1	-1	-1	-1	-1	-1	-1	-1	59	-1	5	31	-1	-1	1	29	49	-1	-1	-1	-1	-1	-1	38	51	9	-1	-1	54	-1	-1	40	-1	-1	-1	-1	-1	-1	-1	45	17	-1	41	-1	18	42	19	13	-1	-1	-1
-1	-1	44	-1	37	-1	-1	-1	-1	-1	9	-1	-1	30	61	38	-1	53	-1	-1	63	12	-1	-1	-1	45	-1	-1	-1	-1	36	-1	20	-1	41	10	-1	-1	-1	-1	-1	58	34	-1	-1	-1	-1	-1	-1	57	42	-1	-1	-1	19	-1	-1	-1	47	-1	23	33	-1	-1
-1	29	-1	-1	13	-1	5	-1	4	-1	28	15	41	-1	-1	63	44	-1	-1	-1	-1	-1	51	-1	3	-1	55	32	-1	26	-1	56	19	-1	43	-1	-1	-1	39	36	-1	-1	62	-1	-1	-1	35	38	-1	25	10	58	34	-1	-1	-1	-1	6	27	-1	18	17	24	23
-1	-1	-1	-1	-1	-1	-1	-1	-1	62	27	-1	44	-1	36	-1	40	45	-1	-1	60	-1	8	-1	-1	-1	-1	57	-1	-1	22	21	-1	12	-1	-1	-1	-1	-1	61	-1	-1	-1	17	-1	1	49	-1	59	6	-1	-1	-1	-1	52	-1	26	-1	-1	-1	2	-1	-1	-1
36	47	-1	30	24	37	-1	-1	-1	6	55	58	-1	9	-1	26	-1	-1	-1	-1	-1	-1	18	-1	38	-1	-1	-1	-1	60	13	-1	10	49	-1	-1	-1	-1	-1	-1	19	-1	-1	-1	29	-1	48	-1	4	-1	35	-1	-1	-1	12	56	62	-1	40	-1	-1	-1	-1	22
-1	39	-1	-1	-1	-1	-1	-1	29	54	53	-1	-1	-1	-1	47	-1	-1	-1	24	16	-1	-1	-1	34	-1	-1	-1	-1	-1	-1	-1	40	-1	-1	30	-1	-1	-1	-1	-1	33	23	-1	-1	22	-1	-1	-1	-1	-1	2	-1	-1	-1	42	-1	55	-1	-1	25	-1	5	-1
-1	-1	-1	6	1	-1	53	-1	12	-1	-1	-1	-1	-1	40	-1	-1	-1	-1	21	-1	57	47	34	36	62	-1	37	54	-1	-1	-1	-1	18	27	33	-1	-1	-1	-1	-1	-1	50	-1	-1	-1	-1	-1	17	43	48	-1	28	60	15	55	10	61	-1	49	46	-1	8	31
-1	54	43	51	-1	-1	-1	-1	-1	5	-1	-1	-1	-1	-1	31	23	-1	64	-1	-1	-1	-1	48	-1	-1	-1	-1	-1	-1	-1	-1	-1	52	-1	56	-1	-1	-1	-1	63	25	-1	59	15	6	-1	-1	-1	32	62	22	49	-1	14	-1	-1	-1	-1	30	7	1	-1	50
-1	46	10	44	62	4	-1	-1	22	-1	21	34	-1	-1	-1	-1	-1	-1	-1	-1	-1	49	42	-1	5	39	-1	-1	-1	23	52	14	64	-1	-1	-1	2	-1	-1	55	-1	-1	-1	8	-1	-1	-1	7	20	50	33	31	-1	-1	-1	26	-1	-1	-1	41	48	-1	-1	-1
17	60	22	26	41	-1	7	15	-1	-1	61	-1	-1	-1	25	-1	-1	-1	13	-1	29	-1	-1	-1	-1	64	-1	-1	-1	-1	-1	9	-1	-1	5	-1	50	14	-1	-1	-1	-1	-1	58	-1	-1	-1	-1	18	1	-1	24	21	-1	-1	-1	12	-1	-1	-1	19	-1	-1	39
6	42	40	-1	43	21	-1	49	24	-1	-1	2	-1	31	-1	-1	3	-1	7	-1	-1	17	-1	1	15	52	-1	-1	9	-1	4	-1	55	64	-1	-1	54	-1	-1	32	22	-1	-1	-1	47	10	20	53	-1	-1	16	-1	-1	-1	-1	-1	60	-1	-1	-1	11	57	33	-1
-1	51	30	1	-1	27	-1	-1	-1	56	-1	-1	-1	-1	-1	-1	33	40	-1	-1	-1	-1	-1	-1	-1	54	-1	64	5	-1	-1	48	6	47	-1	-1	17	29	38	-1	-1	-1	-1	23	-1	21	37	-1	42	52	20	-1	-1	-1	49	-1	-1	-1	-1	4	-1	13	-1	45
20	-1	-1	-1	-1	13	48	-1	-1	-1	-1	-1	-1	32	-1	-1	-1	15	-1	57	-1	-1	-1	53	-1	25	2	-1	-1	-1	6	-1	-1	-1	45	21	-1	4	10	5	17	50	-1	52	-1	7	60	64	-1	34	51	-1	-1	24	-1	-1	30	-1	39	35	49	14	-1	37
-1	19	-1	33	34	15	28	-1	-1	-1	-1	54	-1	36	-1	11	20	-1	62	-1	-1	21	-1	-1	-1	47	53	-1	22	-1	-1	7	-1	43	-1	-1	59	3	-1	-1	-1	42	38	-1	14	-1	-1	-1	-1	-1	4	-1	-1	32	-1	-1	52	-1	-1	-1	51	18	61	9
-1	45	37	25	18	56	57	-1	13	-1	42	-1	-1	15	-1	-1	12	-1	-1	-1	46	-1	-1	-1	-1	3	61	29	-1	-1	-1	-1	-1	1	-1	-1	63	-1	-1	8	-1	-1	41	-1	-1	4	43	-1	-1	58	-1	47	-1	35	-1	6	-1	-1	38	-1	-1	-1	34	55
-1	-1	52	12	-1	44	58	38	51	-1	-1	64	21	-1	-1	18	-1	-1	-1	47	-1	-1	-1	42	-1	-1	33	62	39	-1	28	60	-1	2	-1	-1	56	-1	-1	35	-1	55	-1	-1	-1	-1	-1	-1	-1	-1	26	10	-1	11	-1	25	-1	-1	-1	-1	-1	-1	-1	-1
14	7	-1	-1	-1	26	-1	11	3	-1	-1	-1	-1	-1	6	25	35	38	-1	-1	-1	-1	37	-1	-1	-1	46	-1	23	-1	16	10	18	60	30	-1	-1	40	-1	-1	-1	1	-1	-1	-1	29	59	12	-1	-1	-1	-1	-1	-1	-1	61	-1	-1	58	-1	-1	-1	-1	-1
64	55	-1	-1	10	3	8	-1	28	-1	33	61	4	23	9	-1	31	44	-1	-1	52	58	11	56	-1	50	41	-1	-1	-1	-1	-1	-1	48	-1	14	-1	57	-1	-1	-1	-1	26	45	5	-1	40	-1	13	-1	-1	-1	-1	-1	17	21	6	-1	-1	24	27	-1	36	42
9	22	53	50	31	-1	-1	46	-1	-1	56	-1	-1	-1	34	3	6	37	26	52	10	-1	-1	8	-1	-1	-1	17	18	-1	42	39	-1	-1	-1	55	-1	-1	60	-1	-1	64	-1	38	13	-1	-1	43	-1	-1	-1	-1	32	-1	59	29	-1	4	19	-1	-1	7	-1	15
54	-1	23	-1	27	-1	-1	-1	35	64	-1	-1	-1	-1	-1	43	5	-1	55	-1	2	-1	48	-1	-1	41	-1	-1	-1	-1	7	26	12	-1	39	-1	44	-1	-1	-1	52	6	4	47	18	61	-1	8	-1	38	-1	-1	-1	-1	-1	10	59	-1	33	-1	56	-1	-1	-1
32	-1	8	10	-1	-1	-1	18	-1	-1	11	-1	-1	-1	15	52	-1	-1	-1	-1	-1	-1	20	-1	-1	-1	28	-1	-1	44	-1	-1	34	-1	36	-1	31	-1	-1	-1	-1	-1	-1	37	-1	-1	-1	39	19	-1	55	30	26	3	-1	-1	29	-1	53	27	-1	-1	-1	-1
60	-1	12	2	-1	-1	25	-1	-1	-1	-1	-1	-1	19	-1	-1	-1	-1	11	4	30	-1	-1	-1	-1	-1	-1	-1	10	61	-1	64	-1	-1	-1	51	3	35	22	53	1	-1	-1	-1	55	36	29	-1	46	-1	7	-1	-1	-1	-1	-1	28	54	-1	-1	-1	24	52	-1
-1	-1	-1	-1	40	-1	4	19	-1	-1	-1	-1	-1	47	59	-1	-1	-1	-1	12	-1	-1	-1	-1	37	6	-1	51	-1	58	-1	-1	56	-1	-1	46	43	48	-1	-1	32	7	-1	-1	28	53	-1	-1	60	16	-1	-1	5	-1	-1	-1	-1	-1	10	22	-1	-1	-1	2
-1	59	-1	14	-1	-1	-1	-1	-1	-1	-1	-1	24	-1	-1	-1	43	51	-1	-1	40	3	-1	-1	35	23	-1	63	-1	32	-1	2	30	-1	-1	37	25	-1	-1	10	-1	-1	19	-1	-1	-1	-1	-1	-1	64	-1	-1	-1	-1	-1	-1	57	21	-1	39	58	26	-1	-1
29	-1	-1	-1	-1	-1	6	-1	-1	-1	-1	-1	-1	22	-1	-1	-1	28	-1	-1	32	63	25	-1	19	20	-1	-1	47	52	34	50	21	-1	-1	-1	9	-1	14	33	-1	60	12	26	-1	-1	-1	-1	48	45	41	43	51	-1	62	-1	-1	13	-1	-1	31	5	-1	35
35	-1	7	-1	-1	-1	-1	24	9	-1	-1	25	-1	63	-1	-1	61	-1	-1	54	64	22	-1	-1	-1	53	57	4	-1	38	21	-1	-1	-1	32	29	-1	26	-1	6	-1	-1	15	50	-1	-1	-1	-1	-1	-1	52	-1	-1	-1	-1	20	-1	-1	-1	-1	-1	-1	-1	46
64 
59 18 33 57
64 33 27 16
36 40 23 2
7 2 35 23
64 39 34 36
48 20 9 16
13 64 39 44
31 18 12 17
55 54 12 7
50 19 63 41
42 56 62 44
34 29 46 1
18 48 14 41
11 34 50 20
40 1 15 5
56 39 51 5
12 33 43 39
63 35 51 30
64 23 46 12
53 25 54 11
53 29 24 9
41 19 53 16
57 50 21 13
22 30 28 34
21 52 25 19
21 39 40 13
1 28 61 39
15 37 36 12
16 48 62 11
39 17 37 1
64 24 26 23
26 52 60 16
15 22 62 20
24 23 35 59
50 8 24 35
48 60 44 48
38 27 46 9
63 24 46 57
45 14 8 45
9 48 2 44
11 6 60 64
8 16 63 36
31 44 50 56
60 10 29 45
9 31 45 11
42 9 18 20
2 19 41 37
17 26 59 64
16 13 19 38
23 55 41 18
53 31 25 39
37 37 41 4
28 61 46 49
26 51 33 53
2 53 17 35
11 1 20 9
63 9 48 46
38 28 57 35
15 62 45 38
17 23 24 7
59 10 2 62
55 12 37 32
56 30 42 8
38 17 63 4
